************************************************************************
file with basedata            : mm43_.bas
initial value random generator: 17320
************************************************************************
projects                      :  1
jobs (incl. supersource/sink ):  12
horizon                       :  77
RESOURCES
  - renewable                 :  2   R
  - nonrenewable              :  2   N
  - doubly constrained        :  0   D
************************************************************************
PROJECT INFORMATION:
pronr.  #jobs rel.date duedate tardcost  MPM-Time
    1     10      0       15        0       15
************************************************************************
PRECEDENCE RELATIONS:
jobnr.    #modes  #successors   successors
   0        1          3           1   2   3
   1        3          1           4
   2        3          2           7   9
   3        3          3           4   5   6
   4        3          2           8  10
   5        3          1           8
   6        3          2           7   9
   7        3          1           8
   8        3          1          11
   9        3          1          11
  10        3          1          11
  11        1          0        
************************************************************************
REQUESTS/DURATIONS:
jobnr. mode duration  R 1  R 2  R 3  R 4  E(W 1)  E(W 2)  E(W 3)
------------------------------------------------------------------------
  0      1     0       0    0    0    0     0       0       0
  1      1     5       7    7    0    5    70       0      25
  2      1     3       2   10    0    6    36       0      18
  3      1     4       8    4    6    0    48      24       0
  4      1     8       4    9    8    0    104      64       0
  5      1     2       9    6   10    0    30      20       0
  6      1     2       3    5    3    0    16       6       0
  7      1     1       3    8    0    7    11       0       7
  8      1     1       6    8    0   10    14       0      10
  9      1     7       3    7    3    0    70      21       0
 10      1     2       2    6    4    0    16       8       0
 11      1     0       0    0    0    0     0       0       0
************************************************************************
RESOURCEAVAILABILITIES:
  R 1  R 2  R 3
   30   45   33
************************************************************************
RESOURCE LIMITS:
jobnr.  l(R 1)  u(R 1)  l(R 2)  u(R 2)  l(R 3)  u(R 3)
------------------------------------------------------------------------
  0        0       0       0       0       0       0
  1        8      14       0       0       3       5
  2        6      12       0       0       3       6
  3        6      12       3       6       0       0
  4        7      13       4       8       0       0
  5        8      15       5      10       0       0
  6        5       8       2       3       0       0
  7        6      11       0       0       4       7
  8        7      14       0       0       5      10
  9        6      10       2       3       0       0
 10        4       8       2       4       0       0
 11        0       0       0       0       0       0
************************************************************************
SCENARIOS:
------------------------------------------------------------------------
RESOURCE k = 1
s = 1: (0, 98, 27, 47, 82, 36, 24, 8, 12, 43, 14, 0)
s = 2: (0, 57, 36, 83, 167, 20, 9, 9, 13, 65, 21, 0)
s = 3: (0, 79, 25, 66, 91, 19, 12, 11, 13, 109, 15, 0)
s = 4: (0, 71, 28, 47, 92, 37, 11, 20, 11, 50, 20, 0)
s = 5: (0, 61, 34, 31, 131, 22, 15, 8, 14, 56, 12, 0)
s = 6: (0, 75, 32, 30, 124, 31, 16, 8, 13, 54, 18, 0)
s = 7: (0, 108, 46, 59, 73, 28, 19, 8, 16, 62, 21, 0)
s = 8: (0, 53, 29, 34, 140, 29, 13, 9, 15, 46, 17, 0)
s = 9: (0, 100, 38, 57, 157, 22, 28, 19, 15, 103, 17, 0)
s = 10: (0, 78, 44, 57, 95, 43, 11, 11, 14, 62, 20, 0)
s = 11: (0, 84, 60, 29, 80, 26, 19, 13, 18, 53, 25, 0)
s = 12: (0, 83, 32, 39, 96, 31, 21, 9, 10, 97, 13, 0)
s = 13: (0, 54, 51, 40, 115, 38, 13, 10, 14, 93, 16, 0)
s = 14: (0, 55, 34, 55, 74, 29, 18, 8, 20, 91, 12, 0)
s = 15: (0, 45, 24, 44, 156, 26, 17, 8, 11, 67, 25, 0)
s = 16: (0, 69, 33, 61, 164, 18, 16, 12, 10, 60, 20, 0)
s = 17: (0, 87, 38, 59, 63, 27, 17, 9, 15, 75, 11, 0)
s = 18: (0, 40, 29, 34, 65, 25, 18, 11, 14, 88, 11, 0)
s = 19: (0, 48, 26, 39, 177, 22, 15, 9, 12, 48, 11, 0)
s = 20: (0, 53, 43, 60, 93, 23, 11, 16, 11, 87, 18, 0)
s = 21: (0, 95, 42, 59, 163, 41, 10, 12, 17, 51, 16, 0)
s = 22: (0, 77, 39, 63, 77, 23, 29, 9, 10, 70, 10, 0)
s = 23: (0, 92, 46, 67, 95, 35, 13, 9, 9, 88, 16, 0)
s = 24: (0, 74, 37, 52, 158, 39, 11, 12, 16, 66, 10, 0)
s = 25: (0, 55, 26, 37, 143, 30, 17, 8, 8, 66, 16, 0)
s = 26: (0, 58, 30, 53, 118, 21, 27, 8, 13, 79, 14, 0)
s = 27: (0, 74, 68, 56, 173, 27, 13, 12, 11, 52, 24, 0)
s = 28: (0, 58, 21, 43, 65, 24, 20, 14, 12, 69, 15, 0)
s = 29: (0, 62, 69, 41, 69, 25, 19, 16, 22, 52, 11, 0)
s = 30: (0, 83, 50, 31, 176, 26, 15, 10, 12, 76, 19, 0)
s = 31: (0, 49, 39, 46, 68, 25, 12, 9, 9, 80, 11, 0)
s = 32: (0, 69, 26, 46, 87, 37, 20, 9, 21, 75, 16, 0)
s = 33: (0, 80, 23, 37, 129, 48, 18, 7, 8, 79, 10, 0)
s = 34: (0, 69, 46, 36, 125, 38, 21, 7, 11, 68, 14, 0)
s = 35: (0, 67, 34, 49, 78, 34, 16, 12, 16, 57, 13, 0)
s = 36: (0, 73, 36, 37, 140, 20, 18, 10, 13, 55, 15, 0)
s = 37: (0, 40, 43, 29, 130, 23, 18, 10, 12, 79, 16, 0)
s = 38: (0, 80, 26, 46, 79, 31, 28, 11, 11, 121, 12, 0)
s = 39: (0, 81, 31, 59, 123, 44, 17, 12, 9, 68, 14, 0)
s = 40: (0, 78, 34, 29, 198, 29, 11, 12, 18, 107, 14, 0)
s = 41: (0, 81, 27, 64, 63, 27, 21, 8, 17, 51, 25, 0)
s = 42: (0, 61, 37, 68, 116, 50, 19, 17, 10, 58, 14, 0)
s = 43: (0, 76, 35, 42, 130, 28, 11, 16, 12, 59, 16, 0)
s = 44: (0, 66, 33, 42, 137, 29, 22, 8, 12, 61, 11, 0)
s = 45: (0, 53, 39, 39, 119, 32, 13, 12, 12, 70, 12, 0)
s = 46: (0, 69, 21, 30, 93, 27, 19, 18, 22, 46, 14, 0)
s = 47: (0, 98, 35, 43, 101, 21, 12, 10, 15, 64, 23, 0)
s = 48: (0, 43, 26, 28, 122, 19, 14, 16, 8, 56, 20, 0)
s = 49: (0, 84, 20, 26, 198, 24, 17, 12, 10, 46, 17, 0)
s = 50: (0, 46, 33, 67, 105, 22, 16, 16, 12, 50, 11, 0)
s = 51: (0, 89, 25, 33, 140, 25, 18, 9, 15, 83, 16, 0)
s = 52: (0, 66, 33, 41, 109, 25, 20, 10, 9, 97, 15, 0)
s = 53: (0, 91, 50, 53, 84, 33, 15, 8, 11, 93, 16, 0)
s = 54: (0, 57, 27, 66, 123, 35, 28, 10, 14, 51, 15, 0)
s = 55: (0, 48, 33, 25, 88, 29, 22, 10, 21, 68, 19, 0)
s = 56: (0, 92, 37, 53, 65, 31, 15, 9, 10, 52, 28, 0)
s = 57: (0, 99, 45, 34, 108, 17, 13, 14, 15, 58, 17, 0)
s = 58: (0, 95, 29, 53, 96, 42, 12, 18, 12, 93, 17, 0)
s = 59: (0, 55, 25, 37, 139, 27, 23, 11, 8, 63, 17, 0)
s = 60: (0, 66, 38, 39, 104, 22, 14, 10, 13, 52, 21, 0)
s = 61: (0, 68, 42, 35, 145, 29, 19, 19, 16, 55, 19, 0)
s = 62: (0, 71, 33, 49, 96, 16, 14, 17, 11, 107, 14, 0)
s = 63: (0, 68, 31, 37, 100, 46, 21, 10, 11, 66, 11, 0)
s = 64: (0, 64, 51, 30, 100, 40, 18, 16, 17, 74, 25, 0)
s = 65: (0, 127, 63, 58, 78, 25, 20, 10, 10, 71, 10, 0)
s = 66: (0, 50, 33, 47, 145, 18, 15, 15, 21, 97, 11, 0)
s = 67: (0, 107, 30, 46, 69, 29, 17, 14, 14, 98, 9, 0)
s = 68: (0, 61, 37, 37, 134, 32, 18, 17, 21, 40, 14, 0)
s = 69: (0, 101, 32, 76, 92, 21, 11, 10, 8, 103, 13, 0)
s = 70: (0, 45, 31, 58, 75, 31, 10, 12, 10, 44, 20, 0)
s = 71: (0, 90, 37, 40, 146, 24, 10, 9, 9, 74, 15, 0)
s = 72: (0, 78, 32, 38, 97, 27, 20, 14, 9, 46, 14, 0)
s = 73: (0, 61, 34, 29, 184, 33, 13, 11, 27, 107, 14, 0)
s = 74: (0, 104, 31, 67, 101, 19, 14, 12, 14, 68, 13, 0)
s = 75: (0, 58, 61, 44, 88, 32, 15, 10, 14, 54, 15, 0)
s = 76: (0, 96, 33, 45, 103, 36, 17, 6, 17, 58, 21, 0)
s = 77: (0, 59, 30, 54, 117, 24, 16, 11, 18, 99, 16, 0)
s = 78: (0, 60, 37, 49, 94, 31, 10, 9, 11, 115, 16, 0)
s = 79: (0, 91, 25, 48, 108, 43, 12, 9, 16, 50, 17, 0)
s = 80: (0, 53, 26, 70, 69, 33, 13, 11, 10, 65, 20, 0)
s = 81: (0, 71, 33, 41, 126, 26, 10, 8, 18, 55, 11, 0)
s = 82: (0, 73, 34, 29, 131, 32, 15, 14, 16, 72, 24, 0)
s = 83: (0, 85, 37, 39, 111, 24, 18, 14, 10, 124, 18, 0)
s = 84: (0, 81, 43, 67, 84, 33, 17, 14, 24, 118, 13, 0)
s = 85: (0, 63, 50, 66, 79, 26, 20, 15, 15, 112, 15, 0)
s = 86: (0, 61, 31, 57, 100, 18, 23, 10, 11, 59, 14, 0)
s = 87: (0, 92, 40, 28, 76, 19, 15, 12, 12, 56, 12, 0)
s = 88: (0, 115, 32, 74, 117, 20, 12, 12, 16, 47, 19, 0)
s = 89: (0, 66, 30, 59, 68, 32, 15, 14, 15, 63, 21, 0)
s = 90: (0, 56, 31, 58, 74, 22, 17, 8, 12, 62, 16, 0)
s = 91: (0, 98, 24, 69, 101, 21, 18, 12, 15, 66, 9, 0)
s = 92: (0, 90, 41, 31, 111, 19, 11, 15, 19, 45, 17, 0)
s = 93: (0, 47, 41, 39, 66, 24, 16, 9, 16, 85, 14, 0)
s = 94: (0, 47, 23, 43, 118, 29, 14, 12, 11, 61, 26, 0)
s = 95: (0, 58, 40, 44, 177, 20, 12, 8, 10, 74, 21, 0)
s = 96: (0, 44, 39, 58, 127, 21, 15, 8, 11, 57, 15, 0)
s = 97: (0, 69, 20, 55, 89, 33, 15, 10, 11, 46, 20, 0)
s = 98: (0, 54, 33, 38, 117, 19, 18, 7, 15, 64, 15, 0)
s = 99: (0, 59, 34, 54, 125, 31, 14, 13, 11, 60, 12, 0)
s = 100: (0, 50, 22, 48, 71, 24, 10, 12, 23, 66, 21, 0)
s = 101: (0, 88, 40, 84, 151, 29, 13, 10, 11, 44, 18, 0)
s = 102: (0, 58, 25, 63, 102, 20, 33, 14, 10, 71, 24, 0)
s = 103: (0, 91, 32, 47, 60, 44, 29, 11, 17, 70, 15, 0)
s = 104: (0, 67, 25, 48, 141, 39, 16, 7, 11, 51, 18, 0)
s = 105: (0, 43, 29, 26, 131, 30, 22, 15, 20, 59, 24, 0)
s = 106: (0, 84, 37, 51, 127, 19, 12, 11, 26, 57, 17, 0)
s = 107: (0, 69, 45, 51, 77, 26, 12, 17, 21, 63, 19, 0)
s = 108: (0, 93, 47, 36, 93, 24, 16, 8, 12, 43, 27, 0)
s = 109: (0, 101, 33, 53, 94, 33, 26, 18, 17, 86, 10, 0)
s = 110: (0, 62, 33, 27, 124, 32, 12, 11, 14, 67, 13, 0)
s = 111: (0, 60, 47, 42, 107, 22, 15, 12, 14, 41, 15, 0)
s = 112: (0, 74, 49, 70, 90, 31, 11, 13, 16, 60, 13, 0)
s = 113: (0, 67, 24, 51, 109, 18, 23, 10, 8, 118, 26, 0)
s = 114: (0, 76, 25, 57, 98, 49, 16, 11, 21, 59, 13, 0)
s = 115: (0, 76, 51, 50, 59, 42, 11, 14, 14, 112, 23, 0)
s = 116: (0, 58, 26, 73, 159, 31, 15, 11, 20, 80, 24, 0)
s = 117: (0, 63, 49, 59, 140, 38, 21, 12, 12, 93, 15, 0)
s = 118: (0, 81, 23, 64, 86, 18, 21, 13, 15, 79, 10, 0)
s = 119: (0, 40, 26, 42, 75, 23, 13, 11, 15, 46, 16, 0)
s = 120: (0, 41, 33, 42, 147, 17, 20, 8, 12, 46, 13, 0)
s = 121: (0, 53, 41, 45, 105, 31, 9, 12, 13, 77, 18, 0)
s = 122: (0, 49, 25, 44, 112, 24, 10, 14, 14, 46, 23, 0)
s = 123: (0, 87, 34, 56, 117, 38, 18, 11, 18, 103, 14, 0)
s = 124: (0, 57, 42, 41, 74, 38, 18, 21, 13, 55, 19, 0)
s = 125: (0, 72, 31, 58, 117, 35, 15, 21, 10, 62, 11, 0)
s = 126: (0, 97, 24, 41, 62, 27, 21, 9, 18, 61, 13, 0)
s = 127: (0, 78, 25, 52, 65, 35, 14, 14, 14, 59, 24, 0)
s = 128: (0, 102, 25, 66, 98, 40, 19, 8, 15, 48, 19, 0)
s = 129: (0, 59, 22, 65, 169, 35, 20, 11, 20, 49, 16, 0)
s = 130: (0, 93, 43, 57, 118, 30, 10, 8, 11, 63, 18, 0)
s = 131: (0, 47, 23, 45, 87, 28, 17, 10, 19, 90, 23, 0)
s = 132: (0, 66, 47, 33, 92, 20, 17, 14, 13, 69, 19, 0)
s = 133: (0, 64, 42, 28, 71, 37, 26, 7, 19, 60, 13, 0)
s = 134: (0, 58, 25, 48, 97, 24, 16, 14, 14, 50, 15, 0)
s = 135: (0, 68, 33, 46, 93, 39, 12, 9, 18, 89, 21, 0)
s = 136: (0, 78, 29, 48, 87, 43, 19, 7, 10, 47, 10, 0)
s = 137: (0, 98, 31, 43, 99, 27, 18, 10, 18, 49, 15, 0)
s = 138: (0, 77, 26, 44, 120, 32, 13, 7, 17, 52, 18, 0)
s = 139: (0, 54, 50, 33, 67, 17, 19, 8, 14, 75, 9, 0)
s = 140: (0, 48, 33, 48, 121, 44, 12, 9, 8, 43, 15, 0)
s = 141: (0, 54, 26, 56, 102, 25, 19, 12, 10, 80, 21, 0)
s = 142: (0, 47, 24, 58, 99, 35, 18, 11, 16, 120, 12, 0)
s = 143: (0, 54, 40, 41, 91, 31, 10, 15, 21, 54, 23, 0)
s = 144: (0, 67, 31, 41, 119, 34, 13, 12, 20, 70, 12, 0)
s = 145: (0, 78, 37, 64, 97, 35, 21, 10, 17, 61, 21, 0)
s = 146: (0, 87, 47, 58, 143, 29, 20, 13, 11, 93, 14, 0)
s = 147: (0, 55, 29, 29, 71, 27, 19, 15, 10, 100, 18, 0)
s = 148: (0, 71, 23, 44, 179, 21, 21, 15, 19, 57, 19, 0)
s = 149: (0, 62, 35, 39, 55, 38, 19, 10, 21, 82, 12, 0)
s = 150: (0, 52, 34, 53, 72, 31, 11, 9, 20, 41, 12, 0)
s = 151: (0, 43, 30, 54, 173, 27, 18, 11, 14, 55, 26, 0)
s = 152: (0, 73, 30, 26, 85, 24, 11, 14, 14, 95, 20, 0)
s = 153: (0, 90, 38, 48, 66, 28, 13, 14, 14, 62, 12, 0)
s = 154: (0, 57, 26, 51, 140, 27, 26, 8, 15, 76, 20, 0)
s = 155: (0, 64, 52, 65, 91, 24, 14, 10, 18, 47, 15, 0)
s = 156: (0, 77, 48, 34, 121, 28, 16, 12, 10, 53, 13, 0)
s = 157: (0, 58, 23, 69, 126, 23, 18, 10, 18, 45, 16, 0)
s = 158: (0, 37, 25, 37, 106, 32, 11, 11, 11, 103, 22, 0)
s = 159: (0, 55, 45, 38, 74, 23, 12, 14, 16, 56, 12, 0)
s = 160: (0, 85, 24, 40, 110, 34, 16, 14, 16, 58, 14, 0)
s = 161: (0, 76, 28, 68, 110, 24, 17, 14, 10, 64, 15, 0)
s = 162: (0, 78, 34, 47, 84, 19, 12, 12, 14, 38, 14, 0)
s = 163: (0, 64, 34, 47, 141, 34, 15, 20, 13, 77, 15, 0)
s = 164: (0, 98, 26, 52, 121, 24, 15, 14, 17, 84, 21, 0)
s = 165: (0, 76, 37, 38, 63, 19, 25, 21, 9, 127, 19, 0)
s = 166: (0, 99, 52, 30, 114, 44, 24, 14, 8, 79, 14, 0)
s = 167: (0, 52, 25, 37, 73, 27, 14, 11, 11, 77, 15, 0)
s = 168: (0, 66, 29, 58, 96, 32, 25, 9, 11, 76, 15, 0)
s = 169: (0, 78, 36, 59, 67, 23, 25, 9, 9, 69, 20, 0)
s = 170: (0, 61, 52, 85, 63, 35, 18, 15, 8, 45, 15, 0)
s = 171: (0, 80, 44, 63, 88, 22, 18, 14, 11, 78, 17, 0)
s = 172: (0, 71, 38, 44, 155, 39, 13, 8, 10, 48, 23, 0)
s = 173: (0, 73, 30, 52, 84, 40, 18, 13, 19, 112, 11, 0)
s = 174: (0, 49, 21, 73, 70, 42, 19, 11, 17, 54, 26, 0)
s = 175: (0, 96, 36, 38, 110, 29, 10, 14, 18, 71, 11, 0)
s = 176: (0, 46, 57, 38, 120, 19, 22, 8, 12, 65, 15, 0)
s = 177: (0, 58, 39, 26, 81, 36, 29, 10, 9, 44, 28, 0)
s = 178: (0, 49, 52, 41, 80, 21, 18, 9, 8, 62, 15, 0)
s = 179: (0, 89, 38, 55, 74, 23, 11, 7, 20, 84, 19, 0)
s = 180: (0, 52, 46, 40, 80, 35, 14, 8, 16, 43, 26, 0)
s = 181: (0, 119, 44, 55, 64, 33, 16, 10, 12, 65, 14, 0)
s = 182: (0, 42, 38, 59, 113, 40, 20, 12, 16, 72, 13, 0)
s = 183: (0, 70, 25, 53, 112, 34, 12, 12, 13, 78, 23, 0)
s = 184: (0, 78, 32, 35, 90, 21, 17, 8, 11, 69, 10, 0)
s = 185: (0, 72, 36, 27, 70, 23, 15, 8, 18, 61, 17, 0)
s = 186: (0, 94, 49, 28, 56, 36, 18, 11, 15, 57, 20, 0)
s = 187: (0, 65, 49, 47, 125, 29, 16, 10, 12, 52, 9, 0)
s = 188: (0, 49, 55, 62, 67, 40, 15, 10, 10, 48, 12, 0)
s = 189: (0, 49, 40, 45, 144, 26, 16, 16, 9, 58, 18, 0)
s = 190: (0, 69, 34, 45, 98, 42, 20, 12, 21, 60, 17, 0)
s = 191: (0, 75, 60, 52, 72, 28, 15, 10, 17, 68, 12, 0)
s = 192: (0, 94, 22, 37, 163, 27, 12, 11, 13, 46, 27, 0)
s = 193: (0, 96, 36, 44, 166, 26, 13, 12, 13, 92, 19, 0)
s = 194: (0, 47, 47, 43, 107, 57, 19, 11, 9, 54, 12, 0)
s = 195: (0, 52, 33, 40, 67, 38, 12, 13, 18, 75, 17, 0)
s = 196: (0, 72, 34, 78, 103, 29, 19, 10, 20, 90, 18, 0)
s = 197: (0, 77, 49, 34, 135, 45, 14, 10, 16, 66, 11, 0)
s = 198: (0, 81, 40, 70, 117, 30, 16, 9, 14, 47, 17, 0)
s = 199: (0, 61, 51, 41, 92, 31, 11, 9, 19, 70, 17, 0)
s = 200: (0, 76, 39, 50, 112, 19, 14, 9, 10, 83, 19, 0)
------------------------------------------------------------------------
RESOURCE k = 2
s = 1: (0, 0, 0, 24, 51, 24, 9, 0, 0, 13, 7, 0)
s = 2: (0, 0, 0, 42, 103, 14, 4, 0, 0, 20, 11, 0)
s = 3: (0, 0, 0, 33, 56, 13, 5, 0, 0, 33, 8, 0)
s = 4: (0, 0, 0, 24, 57, 25, 5, 0, 0, 15, 10, 0)
s = 5: (0, 0, 0, 16, 81, 15, 6, 0, 0, 17, 6, 0)
s = 6: (0, 0, 0, 15, 76, 21, 6, 0, 0, 16, 9, 0)
s = 7: (0, 0, 0, 30, 45, 19, 7, 0, 0, 19, 11, 0)
s = 8: (0, 0, 0, 17, 87, 20, 5, 0, 0, 14, 9, 0)
s = 9: (0, 0, 0, 29, 97, 15, 11, 0, 0, 31, 9, 0)
s = 10: (0, 0, 0, 29, 59, 29, 5, 0, 0, 19, 10, 0)
s = 11: (0, 0, 0, 15, 50, 17, 7, 0, 0, 16, 13, 0)
s = 12: (0, 0, 0, 20, 59, 21, 8, 0, 0, 30, 7, 0)
s = 13: (0, 0, 0, 20, 71, 25, 5, 0, 0, 28, 8, 0)
s = 14: (0, 0, 0, 28, 46, 19, 7, 0, 0, 28, 6, 0)
s = 15: (0, 0, 0, 22, 96, 18, 7, 0, 0, 20, 13, 0)
s = 16: (0, 0, 0, 31, 101, 12, 6, 0, 0, 18, 10, 0)
s = 17: (0, 0, 0, 30, 39, 18, 7, 0, 0, 23, 6, 0)
s = 18: (0, 0, 0, 17, 40, 17, 7, 0, 0, 27, 6, 0)
s = 19: (0, 0, 0, 20, 109, 15, 6, 0, 0, 15, 6, 0)
s = 20: (0, 0, 0, 30, 57, 16, 4, 0, 0, 26, 9, 0)
s = 21: (0, 0, 0, 30, 100, 27, 4, 0, 0, 16, 8, 0)
s = 22: (0, 0, 0, 32, 48, 16, 11, 0, 0, 21, 5, 0)
s = 23: (0, 0, 0, 34, 59, 24, 5, 0, 0, 27, 8, 0)
s = 24: (0, 0, 0, 26, 97, 26, 5, 0, 0, 20, 5, 0)
s = 25: (0, 0, 0, 19, 88, 20, 7, 0, 0, 20, 8, 0)
s = 26: (0, 0, 0, 27, 73, 14, 10, 0, 0, 24, 7, 0)
s = 27: (0, 0, 0, 28, 107, 18, 5, 0, 0, 16, 12, 0)
s = 28: (0, 0, 0, 22, 40, 16, 8, 0, 0, 21, 8, 0)
s = 29: (0, 0, 0, 21, 43, 17, 7, 0, 0, 16, 6, 0)
s = 30: (0, 0, 0, 16, 109, 18, 6, 0, 0, 23, 10, 0)
s = 31: (0, 0, 0, 23, 42, 17, 5, 0, 0, 24, 6, 0)
s = 32: (0, 0, 0, 23, 54, 25, 8, 0, 0, 23, 8, 0)
s = 33: (0, 0, 0, 19, 80, 32, 7, 0, 0, 24, 5, 0)
s = 34: (0, 0, 0, 18, 77, 26, 8, 0, 0, 21, 7, 0)
s = 35: (0, 0, 0, 25, 48, 23, 6, 0, 0, 18, 7, 0)
s = 36: (0, 0, 0, 19, 86, 13, 7, 0, 0, 17, 8, 0)
s = 37: (0, 0, 0, 15, 80, 16, 7, 0, 0, 24, 8, 0)
s = 38: (0, 0, 0, 23, 49, 21, 11, 0, 0, 37, 6, 0)
s = 39: (0, 0, 0, 30, 76, 29, 7, 0, 0, 21, 7, 0)
s = 40: (0, 0, 0, 15, 122, 20, 4, 0, 0, 32, 7, 0)
s = 41: (0, 0, 0, 32, 39, 18, 8, 0, 0, 16, 13, 0)
s = 42: (0, 0, 0, 34, 71, 34, 7, 0, 0, 18, 7, 0)
s = 43: (0, 0, 0, 21, 80, 19, 4, 0, 0, 18, 8, 0)
s = 44: (0, 0, 0, 21, 85, 19, 9, 0, 0, 19, 6, 0)
s = 45: (0, 0, 0, 20, 73, 22, 5, 0, 0, 21, 6, 0)
s = 46: (0, 0, 0, 15, 57, 18, 7, 0, 0, 14, 7, 0)
s = 47: (0, 0, 0, 22, 62, 14, 5, 0, 0, 20, 12, 0)
s = 48: (0, 0, 0, 14, 75, 13, 6, 0, 0, 17, 10, 0)
s = 49: (0, 0, 0, 13, 122, 16, 7, 0, 0, 14, 9, 0)
s = 50: (0, 0, 0, 34, 65, 15, 6, 0, 0, 15, 6, 0)
s = 51: (0, 0, 0, 17, 86, 17, 7, 0, 0, 25, 8, 0)
s = 52: (0, 0, 0, 21, 67, 17, 8, 0, 0, 29, 8, 0)
s = 53: (0, 0, 0, 27, 52, 22, 6, 0, 0, 28, 8, 0)
s = 54: (0, 0, 0, 33, 76, 24, 11, 0, 0, 16, 8, 0)
s = 55: (0, 0, 0, 13, 54, 19, 8, 0, 0, 21, 10, 0)
s = 56: (0, 0, 0, 27, 40, 21, 6, 0, 0, 16, 14, 0)
s = 57: (0, 0, 0, 17, 66, 11, 5, 0, 0, 18, 9, 0)
s = 58: (0, 0, 0, 27, 59, 28, 5, 0, 0, 28, 9, 0)
s = 59: (0, 0, 0, 19, 86, 18, 9, 0, 0, 19, 9, 0)
s = 60: (0, 0, 0, 20, 64, 15, 6, 0, 0, 16, 11, 0)
s = 61: (0, 0, 0, 18, 90, 19, 7, 0, 0, 17, 10, 0)
s = 62: (0, 0, 0, 25, 59, 11, 6, 0, 0, 32, 7, 0)
s = 63: (0, 0, 0, 19, 62, 31, 8, 0, 0, 20, 6, 0)
s = 64: (0, 0, 0, 15, 62, 27, 7, 0, 0, 23, 13, 0)
s = 65: (0, 0, 0, 29, 48, 17, 8, 0, 0, 22, 5, 0)
s = 66: (0, 0, 0, 24, 90, 12, 6, 0, 0, 30, 6, 0)
s = 67: (0, 0, 0, 23, 43, 20, 7, 0, 0, 30, 5, 0)
s = 68: (0, 0, 0, 19, 82, 21, 7, 0, 0, 12, 7, 0)
s = 69: (0, 0, 0, 38, 57, 14, 4, 0, 0, 31, 7, 0)
s = 70: (0, 0, 0, 29, 47, 21, 4, 0, 0, 14, 10, 0)
s = 71: (0, 0, 0, 20, 90, 16, 4, 0, 0, 22, 8, 0)
s = 72: (0, 0, 0, 19, 60, 18, 8, 0, 0, 14, 7, 0)
s = 73: (0, 0, 0, 15, 114, 22, 5, 0, 0, 33, 7, 0)
s = 74: (0, 0, 0, 34, 62, 13, 5, 0, 0, 21, 7, 0)
s = 75: (0, 0, 0, 22, 55, 21, 6, 0, 0, 17, 8, 0)
s = 76: (0, 0, 0, 23, 64, 24, 7, 0, 0, 18, 11, 0)
s = 77: (0, 0, 0, 27, 72, 16, 6, 0, 0, 30, 8, 0)
s = 78: (0, 0, 0, 25, 58, 21, 4, 0, 0, 35, 8, 0)
s = 79: (0, 0, 0, 24, 67, 29, 5, 0, 0, 15, 9, 0)
s = 80: (0, 0, 0, 35, 43, 22, 5, 0, 0, 20, 10, 0)
s = 81: (0, 0, 0, 21, 78, 17, 4, 0, 0, 17, 6, 0)
s = 82: (0, 0, 0, 15, 81, 22, 6, 0, 0, 22, 12, 0)
s = 83: (0, 0, 0, 20, 69, 16, 7, 0, 0, 38, 9, 0)
s = 84: (0, 0, 0, 34, 52, 22, 7, 0, 0, 36, 7, 0)
s = 85: (0, 0, 0, 33, 49, 18, 8, 0, 0, 34, 8, 0)
s = 86: (0, 0, 0, 29, 62, 12, 9, 0, 0, 18, 7, 0)
s = 87: (0, 0, 0, 14, 47, 13, 6, 0, 0, 17, 6, 0)
s = 88: (0, 0, 0, 37, 72, 13, 5, 0, 0, 14, 10, 0)
s = 89: (0, 0, 0, 30, 42, 22, 6, 0, 0, 19, 11, 0)
s = 90: (0, 0, 0, 29, 46, 15, 7, 0, 0, 19, 8, 0)
s = 91: (0, 0, 0, 35, 62, 14, 7, 0, 0, 20, 5, 0)
s = 92: (0, 0, 0, 16, 68, 13, 4, 0, 0, 14, 9, 0)
s = 93: (0, 0, 0, 20, 41, 16, 6, 0, 0, 26, 7, 0)
s = 94: (0, 0, 0, 22, 73, 19, 6, 0, 0, 19, 13, 0)
s = 95: (0, 0, 0, 22, 109, 13, 5, 0, 0, 23, 11, 0)
s = 96: (0, 0, 0, 29, 78, 14, 6, 0, 0, 17, 8, 0)
s = 97: (0, 0, 0, 28, 55, 22, 6, 0, 0, 14, 10, 0)
s = 98: (0, 0, 0, 19, 72, 13, 7, 0, 0, 20, 8, 0)
s = 99: (0, 0, 0, 27, 77, 21, 5, 0, 0, 18, 6, 0)
s = 100: (0, 0, 0, 24, 44, 16, 4, 0, 0, 20, 11, 0)
s = 101: (0, 0, 0, 42, 93, 19, 5, 0, 0, 14, 9, 0)
s = 102: (0, 0, 0, 32, 63, 14, 13, 0, 0, 22, 12, 0)
s = 103: (0, 0, 0, 24, 37, 29, 11, 0, 0, 21, 8, 0)
s = 104: (0, 0, 0, 24, 87, 26, 6, 0, 0, 16, 9, 0)
s = 105: (0, 0, 0, 13, 81, 20, 9, 0, 0, 18, 12, 0)
s = 106: (0, 0, 0, 26, 78, 13, 5, 0, 0, 17, 9, 0)
s = 107: (0, 0, 0, 26, 47, 18, 5, 0, 0, 19, 10, 0)
s = 108: (0, 0, 0, 18, 57, 16, 6, 0, 0, 13, 14, 0)
s = 109: (0, 0, 0, 27, 58, 22, 10, 0, 0, 26, 5, 0)
s = 110: (0, 0, 0, 14, 77, 21, 5, 0, 0, 20, 7, 0)
s = 111: (0, 0, 0, 21, 66, 15, 6, 0, 0, 13, 8, 0)
s = 112: (0, 0, 0, 35, 56, 21, 5, 0, 0, 18, 7, 0)
s = 113: (0, 0, 0, 26, 67, 12, 9, 0, 0, 36, 13, 0)
s = 114: (0, 0, 0, 29, 60, 33, 6, 0, 0, 18, 7, 0)
s = 115: (0, 0, 0, 25, 36, 28, 4, 0, 0, 34, 12, 0)
s = 116: (0, 0, 0, 37, 98, 21, 6, 0, 0, 24, 12, 0)
s = 117: (0, 0, 0, 30, 86, 25, 8, 0, 0, 28, 8, 0)
s = 118: (0, 0, 0, 32, 53, 12, 8, 0, 0, 24, 5, 0)
s = 119: (0, 0, 0, 21, 47, 16, 5, 0, 0, 14, 8, 0)
s = 120: (0, 0, 0, 21, 91, 12, 8, 0, 0, 14, 7, 0)
s = 121: (0, 0, 0, 23, 65, 21, 4, 0, 0, 24, 9, 0)
s = 122: (0, 0, 0, 22, 69, 16, 4, 0, 0, 14, 12, 0)
s = 123: (0, 0, 0, 28, 72, 25, 7, 0, 0, 31, 7, 0)
s = 124: (0, 0, 0, 21, 46, 26, 7, 0, 0, 17, 10, 0)
s = 125: (0, 0, 0, 29, 72, 23, 6, 0, 0, 19, 6, 0)
s = 126: (0, 0, 0, 21, 38, 18, 8, 0, 0, 19, 7, 0)
s = 127: (0, 0, 0, 26, 40, 23, 6, 0, 0, 18, 12, 0)
s = 128: (0, 0, 0, 33, 60, 27, 7, 0, 0, 15, 10, 0)
s = 129: (0, 0, 0, 33, 104, 24, 8, 0, 0, 15, 8, 0)
s = 130: (0, 0, 0, 29, 73, 20, 4, 0, 0, 19, 9, 0)
s = 131: (0, 0, 0, 23, 54, 19, 7, 0, 0, 27, 12, 0)
s = 132: (0, 0, 0, 17, 57, 13, 7, 0, 0, 21, 10, 0)
s = 133: (0, 0, 0, 14, 44, 25, 10, 0, 0, 18, 7, 0)
s = 134: (0, 0, 0, 24, 60, 16, 6, 0, 0, 15, 8, 0)
s = 135: (0, 0, 0, 23, 57, 26, 5, 0, 0, 27, 11, 0)
s = 136: (0, 0, 0, 24, 54, 29, 7, 0, 0, 14, 5, 0)
s = 137: (0, 0, 0, 22, 61, 18, 7, 0, 0, 15, 8, 0)
s = 138: (0, 0, 0, 22, 74, 21, 5, 0, 0, 16, 9, 0)
s = 139: (0, 0, 0, 17, 41, 11, 7, 0, 0, 23, 5, 0)
s = 140: (0, 0, 0, 24, 75, 29, 5, 0, 0, 13, 8, 0)
s = 141: (0, 0, 0, 28, 63, 17, 7, 0, 0, 24, 11, 0)
s = 142: (0, 0, 0, 29, 61, 24, 7, 0, 0, 36, 6, 0)
s = 143: (0, 0, 0, 21, 56, 21, 4, 0, 0, 16, 12, 0)
s = 144: (0, 0, 0, 21, 74, 23, 5, 0, 0, 21, 6, 0)
s = 145: (0, 0, 0, 32, 60, 23, 8, 0, 0, 19, 11, 0)
s = 146: (0, 0, 0, 29, 88, 19, 8, 0, 0, 28, 7, 0)
s = 147: (0, 0, 0, 15, 44, 18, 7, 0, 0, 30, 9, 0)
s = 148: (0, 0, 0, 22, 110, 14, 8, 0, 0, 17, 10, 0)
s = 149: (0, 0, 0, 20, 34, 26, 7, 0, 0, 25, 6, 0)
s = 150: (0, 0, 0, 27, 45, 21, 4, 0, 0, 13, 6, 0)
s = 151: (0, 0, 0, 27, 106, 18, 7, 0, 0, 17, 13, 0)
s = 152: (0, 0, 0, 13, 52, 16, 4, 0, 0, 29, 10, 0)
s = 153: (0, 0, 0, 24, 41, 19, 5, 0, 0, 19, 6, 0)
s = 154: (0, 0, 0, 26, 87, 18, 10, 0, 0, 23, 10, 0)
s = 155: (0, 0, 0, 33, 56, 16, 6, 0, 0, 15, 8, 0)
s = 156: (0, 0, 0, 17, 75, 19, 6, 0, 0, 16, 7, 0)
s = 157: (0, 0, 0, 35, 78, 15, 7, 0, 0, 14, 8, 0)
s = 158: (0, 0, 0, 19, 65, 21, 4, 0, 0, 31, 11, 0)
s = 159: (0, 0, 0, 19, 46, 16, 5, 0, 0, 17, 6, 0)
s = 160: (0, 0, 0, 20, 68, 23, 6, 0, 0, 18, 7, 0)
s = 161: (0, 0, 0, 34, 68, 16, 7, 0, 0, 20, 8, 0)
s = 162: (0, 0, 0, 24, 52, 13, 5, 0, 0, 12, 7, 0)
s = 163: (0, 0, 0, 24, 87, 23, 6, 0, 0, 23, 8, 0)
s = 164: (0, 0, 0, 26, 75, 16, 6, 0, 0, 26, 11, 0)
s = 165: (0, 0, 0, 19, 39, 13, 10, 0, 0, 38, 10, 0)
s = 166: (0, 0, 0, 15, 70, 30, 9, 0, 0, 24, 7, 0)
s = 167: (0, 0, 0, 19, 45, 18, 6, 0, 0, 23, 8, 0)
s = 168: (0, 0, 0, 29, 59, 22, 10, 0, 0, 23, 8, 0)
s = 169: (0, 0, 0, 30, 41, 15, 10, 0, 0, 21, 10, 0)
s = 170: (0, 0, 0, 43, 39, 23, 7, 0, 0, 14, 8, 0)
s = 171: (0, 0, 0, 32, 54, 15, 7, 0, 0, 24, 9, 0)
s = 172: (0, 0, 0, 22, 96, 26, 5, 0, 0, 15, 12, 0)
s = 173: (0, 0, 0, 26, 52, 27, 7, 0, 0, 34, 6, 0)
s = 174: (0, 0, 0, 37, 43, 28, 8, 0, 0, 16, 13, 0)
s = 175: (0, 0, 0, 19, 68, 20, 4, 0, 0, 22, 6, 0)
s = 176: (0, 0, 0, 19, 74, 13, 9, 0, 0, 20, 8, 0)
s = 177: (0, 0, 0, 13, 50, 24, 11, 0, 0, 14, 14, 0)
s = 178: (0, 0, 0, 21, 49, 14, 7, 0, 0, 19, 8, 0)
s = 179: (0, 0, 0, 28, 46, 15, 5, 0, 0, 25, 10, 0)
s = 180: (0, 0, 0, 20, 49, 24, 6, 0, 0, 13, 13, 0)
s = 181: (0, 0, 0, 28, 40, 22, 6, 0, 0, 20, 7, 0)
s = 182: (0, 0, 0, 30, 70, 27, 8, 0, 0, 22, 7, 0)
s = 183: (0, 0, 0, 27, 69, 23, 5, 0, 0, 24, 12, 0)
s = 184: (0, 0, 0, 18, 56, 14, 7, 0, 0, 21, 5, 0)
s = 185: (0, 0, 0, 14, 43, 15, 6, 0, 0, 19, 9, 0)
s = 186: (0, 0, 0, 14, 35, 24, 7, 0, 0, 17, 10, 0)
s = 187: (0, 0, 0, 24, 77, 20, 6, 0, 0, 16, 5, 0)
s = 188: (0, 0, 0, 31, 41, 27, 6, 0, 0, 15, 6, 0)
s = 189: (0, 0, 0, 23, 89, 18, 6, 0, 0, 18, 9, 0)
s = 190: (0, 0, 0, 23, 61, 28, 8, 0, 0, 18, 9, 0)
s = 191: (0, 0, 0, 26, 44, 19, 6, 0, 0, 21, 6, 0)
s = 192: (0, 0, 0, 19, 101, 18, 5, 0, 0, 14, 14, 0)
s = 193: (0, 0, 0, 22, 102, 17, 5, 0, 0, 28, 10, 0)
s = 194: (0, 0, 0, 22, 66, 38, 8, 0, 0, 17, 6, 0)
s = 195: (0, 0, 0, 20, 41, 25, 5, 0, 0, 23, 9, 0)
s = 196: (0, 0, 0, 39, 64, 20, 7, 0, 0, 27, 9, 0)
s = 197: (0, 0, 0, 17, 83, 30, 5, 0, 0, 20, 6, 0)
s = 198: (0, 0, 0, 35, 72, 20, 6, 0, 0, 15, 9, 0)
s = 199: (0, 0, 0, 21, 57, 21, 5, 0, 0, 21, 9, 0)
s = 200: (0, 0, 0, 25, 69, 13, 6, 0, 0, 25, 10, 0)
------------------------------------------------------------------------
RESOURCE k = 3
s = 1: (0, 35, 14, 0, 0, 0, 0, 5, 9, 0, 0, 0)
s = 2: (0, 21, 18, 0, 0, 0, 0, 6, 10, 0, 0, 0)
s = 3: (0, 28, 13, 0, 0, 0, 0, 7, 9, 0, 0, 0)
s = 4: (0, 26, 14, 0, 0, 0, 0, 13, 8, 0, 0, 0)
s = 5: (0, 22, 17, 0, 0, 0, 0, 5, 10, 0, 0, 0)
s = 6: (0, 27, 16, 0, 0, 0, 0, 5, 9, 0, 0, 0)
s = 7: (0, 39, 23, 0, 0, 0, 0, 5, 12, 0, 0, 0)
s = 8: (0, 19, 15, 0, 0, 0, 0, 6, 11, 0, 0, 0)
s = 9: (0, 36, 19, 0, 0, 0, 0, 12, 11, 0, 0, 0)
s = 10: (0, 28, 22, 0, 0, 0, 0, 7, 10, 0, 0, 0)
s = 11: (0, 30, 30, 0, 0, 0, 0, 8, 13, 0, 0, 0)
s = 12: (0, 30, 16, 0, 0, 0, 0, 6, 7, 0, 0, 0)
s = 13: (0, 20, 26, 0, 0, 0, 0, 7, 10, 0, 0, 0)
s = 14: (0, 20, 17, 0, 0, 0, 0, 6, 14, 0, 0, 0)
s = 15: (0, 16, 12, 0, 0, 0, 0, 5, 8, 0, 0, 0)
s = 16: (0, 25, 17, 0, 0, 0, 0, 8, 8, 0, 0, 0)
s = 17: (0, 31, 19, 0, 0, 0, 0, 6, 11, 0, 0, 0)
s = 18: (0, 15, 15, 0, 0, 0, 0, 7, 10, 0, 0, 0)
s = 19: (0, 17, 13, 0, 0, 0, 0, 6, 8, 0, 0, 0)
s = 20: (0, 19, 22, 0, 0, 0, 0, 10, 8, 0, 0, 0)
s = 21: (0, 34, 21, 0, 0, 0, 0, 8, 12, 0, 0, 0)
s = 22: (0, 28, 20, 0, 0, 0, 0, 6, 7, 0, 0, 0)
s = 23: (0, 33, 23, 0, 0, 0, 0, 6, 7, 0, 0, 0)
s = 24: (0, 27, 19, 0, 0, 0, 0, 8, 12, 0, 0, 0)
s = 25: (0, 20, 13, 0, 0, 0, 0, 6, 6, 0, 0, 0)
s = 26: (0, 21, 15, 0, 0, 0, 0, 5, 10, 0, 0, 0)
s = 27: (0, 27, 34, 0, 0, 0, 0, 8, 8, 0, 0, 0)
s = 28: (0, 21, 11, 0, 0, 0, 0, 9, 9, 0, 0, 0)
s = 29: (0, 22, 35, 0, 0, 0, 0, 10, 16, 0, 0, 0)
s = 30: (0, 30, 25, 0, 0, 0, 0, 7, 9, 0, 0, 0)
s = 31: (0, 18, 20, 0, 0, 0, 0, 6, 7, 0, 0, 0)
s = 32: (0, 25, 13, 0, 0, 0, 0, 6, 15, 0, 0, 0)
s = 33: (0, 29, 12, 0, 0, 0, 0, 5, 6, 0, 0, 0)
s = 34: (0, 25, 23, 0, 0, 0, 0, 4, 8, 0, 0, 0)
s = 35: (0, 24, 17, 0, 0, 0, 0, 8, 11, 0, 0, 0)
s = 36: (0, 26, 18, 0, 0, 0, 0, 7, 9, 0, 0, 0)
s = 37: (0, 15, 22, 0, 0, 0, 0, 7, 8, 0, 0, 0)
s = 38: (0, 29, 13, 0, 0, 0, 0, 7, 8, 0, 0, 0)
s = 39: (0, 29, 16, 0, 0, 0, 0, 8, 6, 0, 0, 0)
s = 40: (0, 28, 17, 0, 0, 0, 0, 8, 13, 0, 0, 0)
s = 41: (0, 29, 14, 0, 0, 0, 0, 5, 12, 0, 0, 0)
s = 42: (0, 22, 19, 0, 0, 0, 0, 11, 7, 0, 0, 0)
s = 43: (0, 27, 18, 0, 0, 0, 0, 10, 8, 0, 0, 0)
s = 44: (0, 24, 17, 0, 0, 0, 0, 5, 8, 0, 0, 0)
s = 45: (0, 19, 20, 0, 0, 0, 0, 8, 9, 0, 0, 0)
s = 46: (0, 25, 11, 0, 0, 0, 0, 11, 16, 0, 0, 0)
s = 47: (0, 35, 18, 0, 0, 0, 0, 7, 11, 0, 0, 0)
s = 48: (0, 16, 13, 0, 0, 0, 0, 10, 6, 0, 0, 0)
s = 49: (0, 30, 10, 0, 0, 0, 0, 8, 7, 0, 0, 0)
s = 50: (0, 17, 17, 0, 0, 0, 0, 11, 9, 0, 0, 0)
s = 51: (0, 32, 13, 0, 0, 0, 0, 6, 11, 0, 0, 0)
s = 52: (0, 24, 17, 0, 0, 0, 0, 6, 7, 0, 0, 0)
s = 53: (0, 33, 25, 0, 0, 0, 0, 5, 8, 0, 0, 0)
s = 54: (0, 21, 14, 0, 0, 0, 0, 6, 10, 0, 0, 0)
s = 55: (0, 17, 17, 0, 0, 0, 0, 7, 15, 0, 0, 0)
s = 56: (0, 33, 19, 0, 0, 0, 0, 6, 8, 0, 0, 0)
s = 57: (0, 36, 23, 0, 0, 0, 0, 9, 11, 0, 0, 0)
s = 58: (0, 34, 15, 0, 0, 0, 0, 11, 9, 0, 0, 0)
s = 59: (0, 20, 13, 0, 0, 0, 0, 7, 6, 0, 0, 0)
s = 60: (0, 24, 19, 0, 0, 0, 0, 6, 9, 0, 0, 0)
s = 61: (0, 24, 21, 0, 0, 0, 0, 12, 12, 0, 0, 0)
s = 62: (0, 26, 17, 0, 0, 0, 0, 11, 8, 0, 0, 0)
s = 63: (0, 24, 16, 0, 0, 0, 0, 6, 8, 0, 0, 0)
s = 64: (0, 23, 26, 0, 0, 0, 0, 10, 13, 0, 0, 0)
s = 65: (0, 46, 32, 0, 0, 0, 0, 7, 7, 0, 0, 0)
s = 66: (0, 18, 17, 0, 0, 0, 0, 10, 15, 0, 0, 0)
s = 67: (0, 38, 15, 0, 0, 0, 0, 9, 10, 0, 0, 0)
s = 68: (0, 22, 19, 0, 0, 0, 0, 11, 15, 0, 0, 0)
s = 69: (0, 36, 16, 0, 0, 0, 0, 7, 6, 0, 0, 0)
s = 70: (0, 16, 16, 0, 0, 0, 0, 8, 7, 0, 0, 0)
s = 71: (0, 32, 19, 0, 0, 0, 0, 6, 6, 0, 0, 0)
s = 72: (0, 28, 16, 0, 0, 0, 0, 9, 7, 0, 0, 0)
s = 73: (0, 22, 17, 0, 0, 0, 0, 7, 20, 0, 0, 0)
s = 74: (0, 38, 16, 0, 0, 0, 0, 8, 10, 0, 0, 0)
s = 75: (0, 21, 31, 0, 0, 0, 0, 6, 10, 0, 0, 0)
s = 76: (0, 35, 17, 0, 0, 0, 0, 4, 12, 0, 0, 0)
s = 77: (0, 21, 15, 0, 0, 0, 0, 7, 13, 0, 0, 0)
s = 78: (0, 22, 19, 0, 0, 0, 0, 6, 8, 0, 0, 0)
s = 79: (0, 33, 13, 0, 0, 0, 0, 6, 11, 0, 0, 0)
s = 80: (0, 19, 13, 0, 0, 0, 0, 7, 7, 0, 0, 0)
s = 81: (0, 26, 17, 0, 0, 0, 0, 5, 13, 0, 0, 0)
s = 82: (0, 26, 17, 0, 0, 0, 0, 9, 12, 0, 0, 0)
s = 83: (0, 31, 19, 0, 0, 0, 0, 9, 7, 0, 0, 0)
s = 84: (0, 29, 22, 0, 0, 0, 0, 9, 18, 0, 0, 0)
s = 85: (0, 23, 25, 0, 0, 0, 0, 9, 11, 0, 0, 0)
s = 86: (0, 22, 16, 0, 0, 0, 0, 6, 8, 0, 0, 0)
s = 87: (0, 33, 20, 0, 0, 0, 0, 8, 9, 0, 0, 0)
s = 88: (0, 41, 16, 0, 0, 0, 0, 8, 12, 0, 0, 0)
s = 89: (0, 24, 15, 0, 0, 0, 0, 9, 11, 0, 0, 0)
s = 90: (0, 20, 16, 0, 0, 0, 0, 5, 9, 0, 0, 0)
s = 91: (0, 35, 12, 0, 0, 0, 0, 8, 11, 0, 0, 0)
s = 92: (0, 32, 21, 0, 0, 0, 0, 9, 13, 0, 0, 0)
s = 93: (0, 17, 21, 0, 0, 0, 0, 6, 12, 0, 0, 0)
s = 94: (0, 17, 12, 0, 0, 0, 0, 8, 8, 0, 0, 0)
s = 95: (0, 21, 20, 0, 0, 0, 0, 6, 7, 0, 0, 0)
s = 96: (0, 16, 20, 0, 0, 0, 0, 5, 8, 0, 0, 0)
s = 97: (0, 25, 10, 0, 0, 0, 0, 6, 8, 0, 0, 0)
s = 98: (0, 20, 17, 0, 0, 0, 0, 5, 11, 0, 0, 0)
s = 99: (0, 22, 17, 0, 0, 0, 0, 9, 8, 0, 0, 0)
s = 100: (0, 18, 11, 0, 0, 0, 0, 8, 16, 0, 0, 0)
s = 101: (0, 32, 20, 0, 0, 0, 0, 7, 8, 0, 0, 0)
s = 102: (0, 21, 13, 0, 0, 0, 0, 9, 7, 0, 0, 0)
s = 103: (0, 33, 16, 0, 0, 0, 0, 7, 12, 0, 0, 0)
s = 104: (0, 24, 13, 0, 0, 0, 0, 5, 8, 0, 0, 0)
s = 105: (0, 16, 15, 0, 0, 0, 0, 10, 15, 0, 0, 0)
s = 106: (0, 30, 19, 0, 0, 0, 0, 7, 18, 0, 0, 0)
s = 107: (0, 25, 23, 0, 0, 0, 0, 11, 15, 0, 0, 0)
s = 108: (0, 33, 24, 0, 0, 0, 0, 5, 9, 0, 0, 0)
s = 109: (0, 36, 17, 0, 0, 0, 0, 11, 12, 0, 0, 0)
s = 110: (0, 23, 17, 0, 0, 0, 0, 7, 10, 0, 0, 0)
s = 111: (0, 22, 24, 0, 0, 0, 0, 8, 10, 0, 0, 0)
s = 112: (0, 27, 25, 0, 0, 0, 0, 8, 12, 0, 0, 0)
s = 113: (0, 24, 12, 0, 0, 0, 0, 7, 6, 0, 0, 0)
s = 114: (0, 28, 13, 0, 0, 0, 0, 7, 15, 0, 0, 0)
s = 115: (0, 28, 26, 0, 0, 0, 0, 9, 10, 0, 0, 0)
s = 116: (0, 21, 13, 0, 0, 0, 0, 7, 14, 0, 0, 0)
s = 117: (0, 23, 25, 0, 0, 0, 0, 8, 8, 0, 0, 0)
s = 118: (0, 29, 12, 0, 0, 0, 0, 8, 11, 0, 0, 0)
s = 119: (0, 15, 13, 0, 0, 0, 0, 7, 11, 0, 0, 0)
s = 120: (0, 15, 17, 0, 0, 0, 0, 5, 9, 0, 0, 0)
s = 121: (0, 19, 21, 0, 0, 0, 0, 8, 9, 0, 0, 0)
s = 122: (0, 18, 13, 0, 0, 0, 0, 9, 10, 0, 0, 0)
s = 123: (0, 31, 17, 0, 0, 0, 0, 7, 13, 0, 0, 0)
s = 124: (0, 21, 21, 0, 0, 0, 0, 14, 9, 0, 0, 0)
s = 125: (0, 26, 16, 0, 0, 0, 0, 14, 7, 0, 0, 0)
s = 126: (0, 35, 12, 0, 0, 0, 0, 6, 13, 0, 0, 0)
s = 127: (0, 28, 13, 0, 0, 0, 0, 9, 10, 0, 0, 0)
s = 128: (0, 37, 13, 0, 0, 0, 0, 5, 11, 0, 0, 0)
s = 129: (0, 21, 11, 0, 0, 0, 0, 7, 14, 0, 0, 0)
s = 130: (0, 34, 22, 0, 0, 0, 0, 5, 8, 0, 0, 0)
s = 131: (0, 17, 12, 0, 0, 0, 0, 6, 14, 0, 0, 0)
s = 132: (0, 24, 24, 0, 0, 0, 0, 9, 9, 0, 0, 0)
s = 133: (0, 23, 21, 0, 0, 0, 0, 5, 14, 0, 0, 0)
s = 134: (0, 21, 13, 0, 0, 0, 0, 9, 10, 0, 0, 0)
s = 135: (0, 25, 17, 0, 0, 0, 0, 6, 13, 0, 0, 0)
s = 136: (0, 28, 15, 0, 0, 0, 0, 5, 7, 0, 0, 0)
s = 137: (0, 35, 16, 0, 0, 0, 0, 7, 13, 0, 0, 0)
s = 138: (0, 28, 13, 0, 0, 0, 0, 5, 12, 0, 0, 0)
s = 139: (0, 20, 25, 0, 0, 0, 0, 5, 10, 0, 0, 0)
s = 140: (0, 17, 17, 0, 0, 0, 0, 6, 6, 0, 0, 0)
s = 141: (0, 20, 13, 0, 0, 0, 0, 8, 8, 0, 0, 0)
s = 142: (0, 17, 12, 0, 0, 0, 0, 7, 11, 0, 0, 0)
s = 143: (0, 20, 20, 0, 0, 0, 0, 10, 15, 0, 0, 0)
s = 144: (0, 24, 16, 0, 0, 0, 0, 8, 14, 0, 0, 0)
s = 145: (0, 28, 19, 0, 0, 0, 0, 7, 12, 0, 0, 0)
s = 146: (0, 31, 24, 0, 0, 0, 0, 8, 8, 0, 0, 0)
s = 147: (0, 20, 15, 0, 0, 0, 0, 10, 7, 0, 0, 0)
s = 148: (0, 26, 12, 0, 0, 0, 0, 10, 14, 0, 0, 0)
s = 149: (0, 23, 18, 0, 0, 0, 0, 7, 15, 0, 0, 0)
s = 150: (0, 19, 17, 0, 0, 0, 0, 6, 14, 0, 0, 0)
s = 151: (0, 16, 15, 0, 0, 0, 0, 7, 10, 0, 0, 0)
s = 152: (0, 27, 15, 0, 0, 0, 0, 9, 10, 0, 0, 0)
s = 153: (0, 33, 19, 0, 0, 0, 0, 9, 10, 0, 0, 0)
s = 154: (0, 21, 13, 0, 0, 0, 0, 6, 11, 0, 0, 0)
s = 155: (0, 23, 26, 0, 0, 0, 0, 7, 13, 0, 0, 0)
s = 156: (0, 28, 24, 0, 0, 0, 0, 8, 8, 0, 0, 0)
s = 157: (0, 21, 12, 0, 0, 0, 0, 6, 13, 0, 0, 0)
s = 158: (0, 14, 13, 0, 0, 0, 0, 7, 8, 0, 0, 0)
s = 159: (0, 20, 23, 0, 0, 0, 0, 9, 11, 0, 0, 0)
s = 160: (0, 31, 12, 0, 0, 0, 0, 9, 11, 0, 0, 0)
s = 161: (0, 27, 14, 0, 0, 0, 0, 9, 7, 0, 0, 0)
s = 162: (0, 28, 17, 0, 0, 0, 0, 8, 10, 0, 0, 0)
s = 163: (0, 23, 17, 0, 0, 0, 0, 13, 9, 0, 0, 0)
s = 164: (0, 35, 13, 0, 0, 0, 0, 9, 12, 0, 0, 0)
s = 165: (0, 28, 19, 0, 0, 0, 0, 13, 6, 0, 0, 0)
s = 166: (0, 36, 26, 0, 0, 0, 0, 9, 6, 0, 0, 0)
s = 167: (0, 19, 13, 0, 0, 0, 0, 7, 8, 0, 0, 0)
s = 168: (0, 24, 15, 0, 0, 0, 0, 6, 8, 0, 0, 0)
s = 169: (0, 28, 18, 0, 0, 0, 0, 6, 7, 0, 0, 0)
s = 170: (0, 22, 26, 0, 0, 0, 0, 10, 6, 0, 0, 0)
s = 171: (0, 29, 22, 0, 0, 0, 0, 9, 8, 0, 0, 0)
s = 172: (0, 26, 19, 0, 0, 0, 0, 6, 7, 0, 0, 0)
s = 173: (0, 26, 15, 0, 0, 0, 0, 9, 14, 0, 0, 0)
s = 174: (0, 18, 11, 0, 0, 0, 0, 7, 12, 0, 0, 0)
s = 175: (0, 35, 18, 0, 0, 0, 0, 9, 13, 0, 0, 0)
s = 176: (0, 17, 29, 0, 0, 0, 0, 5, 9, 0, 0, 0)
s = 177: (0, 21, 20, 0, 0, 0, 0, 7, 7, 0, 0, 0)
s = 178: (0, 18, 26, 0, 0, 0, 0, 6, 6, 0, 0, 0)
s = 179: (0, 32, 19, 0, 0, 0, 0, 4, 15, 0, 0, 0)
s = 180: (0, 19, 23, 0, 0, 0, 0, 5, 12, 0, 0, 0)
s = 181: (0, 43, 22, 0, 0, 0, 0, 7, 9, 0, 0, 0)
s = 182: (0, 15, 19, 0, 0, 0, 0, 8, 12, 0, 0, 0)
s = 183: (0, 25, 13, 0, 0, 0, 0, 8, 10, 0, 0, 0)
s = 184: (0, 28, 16, 0, 0, 0, 0, 5, 8, 0, 0, 0)
s = 185: (0, 26, 18, 0, 0, 0, 0, 5, 13, 0, 0, 0)
s = 186: (0, 34, 25, 0, 0, 0, 0, 7, 11, 0, 0, 0)
s = 187: (0, 23, 25, 0, 0, 0, 0, 7, 9, 0, 0, 0)
s = 188: (0, 18, 28, 0, 0, 0, 0, 7, 7, 0, 0, 0)
s = 189: (0, 18, 20, 0, 0, 0, 0, 10, 7, 0, 0, 0)
s = 190: (0, 25, 17, 0, 0, 0, 0, 8, 15, 0, 0, 0)
s = 191: (0, 27, 30, 0, 0, 0, 0, 7, 12, 0, 0, 0)
s = 192: (0, 34, 11, 0, 0, 0, 0, 7, 10, 0, 0, 0)
s = 193: (0, 34, 18, 0, 0, 0, 0, 8, 10, 0, 0, 0)
s = 194: (0, 17, 24, 0, 0, 0, 0, 7, 7, 0, 0, 0)
s = 195: (0, 19, 17, 0, 0, 0, 0, 8, 13, 0, 0, 0)
s = 196: (0, 26, 17, 0, 0, 0, 0, 6, 14, 0, 0, 0)
s = 197: (0, 28, 25, 0, 0, 0, 0, 7, 12, 0, 0, 0)
s = 198: (0, 29, 20, 0, 0, 0, 0, 6, 10, 0, 0, 0)
s = 199: (0, 22, 26, 0, 0, 0, 0, 6, 14, 0, 0, 0)
s = 200: (0, 27, 20, 0, 0, 0, 0, 6, 7, 0, 0, 0)
************************************************************************
ES/LS-VALUES:
jobnr.   ES(i)    LS(i)
------------------------------------------------------------------------
  0        0        0
  1        0       47
  2        0       58
  3        0       49
  4        9       57
  5        7       71
  6        7       59
  7       11       73
  8       24       75
  9       11       64
 10       24       73
 11       27       77
************************************************************************
BIG-M-VALUES:
M1 = 70, M2 = 350
************************************************************************
